(set-logic QF_NRA)
(set-info :source |
From termination analysis of term rewriting.

Submitted by Harald Roman Zankl <Harald.Zankl@uibk.ac.at>

|)
(set-info :smt-lib-version 2.0)
(set-info :category "industrial")
(set-info :status unknown)
(declare-fun x6 () Real)
(declare-fun x23 () Real)
(declare-fun x13 () Real)
(declare-fun x3 () Real)
(declare-fun x20 () Real)
(declare-fun x10 () Real)
(declare-fun x0 () Real)
(declare-fun x17 () Real)
(declare-fun x7 () Real)
(declare-fun x24 () Real)
(declare-fun x14 () Real)
(declare-fun x4 () Real)
(declare-fun x21 () Real)
(declare-fun x11 () Real)
(declare-fun x1 () Real)
(declare-fun x18 () Real)
(declare-fun x8 () Real)
(declare-fun x25 () Real)
(declare-fun x15 () Real)
(declare-fun x5 () Real)
(declare-fun x22 () Real)
(declare-fun x12 () Real)
(declare-fun x2 () Real)
(declare-fun x19 () Real)
(declare-fun x9 () Real)
(declare-fun x26 () Real)
(declare-fun x16 () Real)
(assert (>= x6 0))
(assert (>= x23 0))
(assert (>= x13 0))
(assert (>= x3 0))
(assert (>= x20 0))
(assert (>= x10 0))
(assert (>= x0 0))
(assert (>= x17 0))
(assert (>= x7 0))
(assert (>= x24 0))
(assert (>= x14 0))
(assert (>= x4 0))
(assert (>= x21 0))
(assert (>= x11 0))
(assert (>= x1 0))
(assert (>= x18 0))
(assert (>= x8 0))
(assert (>= x25 0))
(assert (>= x15 0))
(assert (>= x5 0))
(assert (>= x22 0))
(assert (>= x12 0))
(assert (>= x2 0))
(assert (>= x19 0))
(assert (>= x9 0))
(assert (>= x26 0))
(assert (>= x16 0))
(assert (and (and (and (and (and (and (and (and (and (and (and (not (<= (+ (* x13 x3) (* x14 x4) (* x3 x1) (* x4 x2)) 0)) (>= (+ (* x13 x3) (* x14 x4) (* x3 x1) (* x4 x2)) 0)) (and (>= (+ (* (- 1) x1) (* x1 x9) (* x11 x2)) 0) (>= (+ (* (- 1) x2) (* x10 x1) (* x12 x2)) 0))) (and (>= (+ (* (- 1) x13) (* x13 x9) (* x14 x11)) 0) (>= (+ (* (- 1) x14) (* x13 x10) (* x14 x12)) 0))) (and (and (not (<= (+ (* x1 x15) (* x2 x16)) 0)) (>= (+ (* x1 x15) (* x2 x16)) 0)) (and (>= (+ (* (- 1) x1) (* x21 x1) (* x23 x2)) 0) (>= (+ (* (- 1) x2) (* x1 x22) (* x24 x2)) 0)))) (and (and (and (and (not (<= (+ (* x1 x15) (* x2 x16) (* (- 1) (* x13 x15)) (* (- 1) (* x14 x16))) 0)) (>= (+ (* x1 x15) (* x2 x16) (* (- 1) (* x13 x15)) (* (- 1) (* x14 x16))) 0)) (and (>= (+ (* (- 1) x1) (* x2 x19) (* x17 x1)) 0) (>= (+ (* (- 1) x2) (* x1 x18) (* x20 x2)) 0))) (and (>= (+ (* (- 1) (* x13 x17)) (* (- 1) (* x14 x19)) (* x21 x1) (* x23 x2)) 0) (>= (+ (* x1 x22) (* (- 1) (* x13 x18)) (* x24 x2) (* (- 1) (* x20 x14))) 0))) (and (>= (+ x13 (* (- 1) (* x13 x21)) (* (- 1) (* x23 x14))) 0) (>= (+ x14 (* (- 1) (* x13 x22)) (* (- 1) (* x24 x14))) 0)))) (and (and (and (not (<= (+ (* x13 x15) (* x14 x16) (* x3 x1) (* x4 x2) (* x13 x21 x25) (* x13 x22 x26) (* x13 x3 x17) (* x13 x4 x18) (* x20 x14 x4) (* x23 x14 x25) (* x24 x14 x26) (* x3 x14 x19)) 0)) (>= (+ (* x13 x15) (* x14 x16) (* x3 x1) (* x4 x2) (* x13 x21 x25) (* x13 x22 x26) (* x13 x3 x17) (* x13 x4 x18) (* x20 x14 x4) (* x23 x14 x25) (* x24 x14 x26) (* x3 x14 x19)) 0)) (and (>= (+ (* (- 1) x1) (* x1 x9) (* x11 x2)) 0) (>= (+ (* (- 1) x2) (* x10 x1) (* x12 x2)) 0))) (and (>= (+ (* (- 1) x13) (* x13 x17 x9) (* x13 x11 x18) (* x14 x19 x9) (* x20 x14 x11)) 0) (>= (+ (* (- 1) x14) (* x13 x18 x12) (* x13 x10 x17) (* x20 x14 x12) (* x10 x14 x19)) 0)))) (and (and (and (and (not (<= (+ (* x13 x15) (* x14 x16) (* (- 1) (* x13 x25)) (* (- 1) (* x14 x26)) (* x13 x21 x25) (* x13 x22 x26) (* x13 x3 x17) (* x13 x4 x18) (* x20 x14 x4) (* x23 x14 x25) (* x24 x14 x26) (* x3 x14 x19) (* (- 1) (* x10 x1 x16)) (* (- 1) (* x1 x15 x9)) (* (- 1) (* x11 x15 x2)) (* (- 1) (* x12 x2 x16))) 0)) (>= (+ (* x13 x15) (* x14 x16) (* (- 1) (* x13 x25)) (* (- 1) (* x14 x26)) (* x13 x21 x25) (* x13 x22 x26) (* x13 x3 x17) (* x13 x4 x18) (* x20 x14 x4) (* x23 x14 x25) (* x24 x14 x26) (* x3 x14 x19) (* (- 1) (* x10 x1 x16)) (* (- 1) (* x1 x15 x9)) (* (- 1) (* x11 x15 x2)) (* (- 1) (* x12 x2 x16))) 0)) (and (>= (+ (* x13 x17 x5) (* x13 x7 x18) (* x20 x7 x14) (* x14 x5 x19)) 0) (>= (+ (* x13 x18 x8) (* x6 x13 x17) (* x20 x14 x8) (* x6 x14 x19)) 0))) (and (>= (+ (* x1 x9) (* x11 x2) (* (- 1) (* x17 x1 x9)) (* (- 1) (* x10 x1 x19)) (* (- 1) (* x12 x2 x19)) (* (- 1) (* x17 x11 x2))) 0) (>= (+ (* x10 x1) (* x12 x2) (* (- 1) (* x1 x18 x9)) (* (- 1) (* x20 x10 x1)) (* (- 1) (* x20 x12 x2)) (* (- 1) (* x11 x18 x2))) 0))) (and (>= (+ (* x13 x17 x9) (* x13 x11 x18) (* x14 x19 x9) (* x20 x14 x11) (* (- 1) (* x21 x1 x9)) (* (- 1) (* x23 x10 x1)) (* (- 1) (* x21 x11 x2)) (* (- 1) (* x23 x12 x2))) 0) (>= (+ (* x13 x18 x12) (* x13 x10 x17) (* x20 x14 x12) (* x10 x14 x19) (* (- 1) (* x10 x24 x1)) (* (- 1) (* x1 x22 x9)) (* (- 1) (* x11 x22 x2)) (* (- 1) (* x24 x12 x2))) 0)))) (and (and (and (and (not (<= (+ (* (- 1) x3) x15 (* (- 1) (* x10 x16)) (* x3 x17) (* x4 x18) (* (- 1) (* x15 x9)) (* x3 x21) (* x4 x22)) 0)) (and (>= (+ (* (- 1) x3) x15 (* (- 1) (* x10 x16)) (* x3 x17) (* x4 x18) (* (- 1) (* x15 x9)) (* x3 x21) (* x4 x22)) 0) (>= (+ (* (- 1) x4) x16 (* x20 x4) (* (- 1) (* x11 x15)) (* (- 1) (* x12 x16)) (* x23 x3) (* x24 x4) (* x3 x19)) 0))) (and (and (and (>= (+ (* (- 1) x5) (* x17 x5) (* x21 x5) (* x7 x18) (* x7 x22)) 0) (>= (+ (* (- 1) x6) (* x18 x8) (* x6 x17) (* x6 x21) (* x8 x22)) 0)) (>= (+ (* (- 1) x7) (* x20 x7) (* x23 x5) (* x5 x19) (* x7 x24)) 0)) (>= (+ (* (- 1) x8) (* x20 x8) (* x24 x8) (* x6 x19) (* x6 x23)) 0))) (and (and (and (>= (+ (* (- 1) (* x10 x19)) (* x11 x18)) 0) (>= (+ (* x18 x12) (* x10 x17) (* (- 1) (* x18 x9)) (* (- 1) (* x20 x10))) 0)) (>= (+ (* x19 x9) (* x20 x11) (* (- 1) (* x12 x19)) (* (- 1) (* x17 x11))) 0)) (>= (+ (* x10 x19) (* (- 1) (* x11 x18))) 0))) (and (and (and (>= (+ (* x11 x22) (* (- 1) (* x23 x10))) 0) (>= (+ (* (- 1) (* x10 x24)) (* x22 x12) (* (- 1) (* x22 x9)) (* x10 x21)) 0)) (>= (+ (* x23 x9) (* x24 x11) (* (- 1) (* x21 x11)) (* (- 1) (* x23 x12))) 0)) (>= (+ (* (- 1) (* x11 x22)) (* x23 x10)) 0)))) (and (and (and (and (not (<= (+ (* (- 1) (* x21 x15)) (* (- 1) (* x22 x16)) (* x17 x15) (* x18 x16)) 0)) (and (>= (+ (* (- 1) (* x21 x15)) (* (- 1) (* x22 x16)) (* x17 x15) (* x18 x16)) 0) (>= (+ (* x20 x16) (* (- 1) (* x23 x15)) (* (- 1) (* x24 x16)) (* x15 x19)) 0))) (and (and (and (>= (+ (* (- 1) x17) (* x17 x17) (* x18 x19)) 0) (>= (+ (* (- 1) x18) (* x17 x18) (* x20 x18)) 0)) (>= (+ (* (- 1) x19) (* x20 x19) (* x17 x19)) 0)) (>= (+ (* (- 1) x20) (* x18 x19) (* x20 x20)) 0))) (and (and (and (>= (+ (* (- 1) (* x22 x19)) (* x23 x18)) 0) (>= (+ (* x17 x22) (* (- 1) (* x21 x18)) (* x24 x18) (* (- 1) (* x20 x22))) 0)) (>= (+ (* (- 1) (* x23 x17)) (* (- 1) (* x24 x19)) (* x21 x19) (* x23 x20)) 0)) (>= (+ (* x22 x19) (* (- 1) (* x23 x18))) 0))) (and (and (and (>= (+ x21 (* (- 1) (* x21 x21)) (* (- 1) (* x23 x22))) 0) (>= (+ x22 (* (- 1) (* x21 x22)) (* (- 1) (* x24 x22))) 0)) (>= (+ x23 (* (- 1) (* x23 x21)) (* (- 1) (* x23 x24))) 0)) (>= (+ x24 (* (- 1) (* x23 x22)) (* (- 1) (* x24 x24))) 0)))) (and (and (and (and (not (<= (+ (* (- 1) (* x21 x25)) (* (- 1) (* x22 x26)) (* x21 x15) (* x22 x16) (* x21 x21 x25) (* x21 x22 x26) (* x3 x17 x21) (* x4 x21 x18) (* x20 x4 x22) (* x23 x25 x22) (* x24 x22 x26) (* x3 x22 x19) (* (- 1) (* x10 x17 x16)) (* (- 1) (* x17 x15 x9)) (* (- 1) (* x11 x18 x15)) (* (- 1) (* x18 x12 x16))) 0)) (and (>= (+ (* (- 1) (* x21 x25)) (* (- 1) (* x22 x26)) (* x21 x15) (* x22 x16) (* x21 x21 x25) (* x21 x22 x26) (* x3 x17 x21) (* x4 x21 x18) (* x20 x4 x22) (* x23 x25 x22) (* x24 x22 x26) (* x3 x22 x19) (* (- 1) (* x10 x17 x16)) (* (- 1) (* x17 x15 x9)) (* (- 1) (* x11 x18 x15)) (* (- 1) (* x18 x12 x16))) 0) (>= (+ (* (- 1) (* x23 x25)) (* (- 1) (* x24 x26)) (* x23 x15) (* x24 x16) (* x23 x21 x25) (* x23 x22 x26) (* x23 x3 x17) (* x23 x4 x18) (* x20 x24 x4) (* x23 x24 x25) (* x24 x24 x26) (* x3 x24 x19) (* (- 1) (* x10 x19 x16)) (* (- 1) (* x15 x19 x9)) (* (- 1) (* x20 x11 x15)) (* (- 1) (* x20 x12 x16))) 0))) (and (and (and (>= (+ (* x17 x21 x5) (* x7 x21 x18) (* x20 x7 x22) (* x5 x22 x19)) 0) (>= (+ (* x21 x18 x8) (* x6 x17 x21) (* x20 x8 x22) (* x6 x22 x19)) 0)) (>= (+ (* x23 x17 x5) (* x23 x7 x18) (* x20 x7 x24) (* x24 x5 x19)) 0)) (>= (+ (* x23 x18 x8) (* x6 x23 x17) (* x20 x24 x8) (* x6 x24 x19)) 0))) (and (and (and (>= (+ (* x17 x9) (* x11 x18) (* (- 1) (* x17 x17 x9)) (* (- 1) (* x10 x17 x19)) (* (- 1) (* x18 x12 x19)) (* (- 1) (* x17 x11 x18))) 0) (>= (+ (* x18 x12) (* x10 x17) (* (- 1) (* x17 x18 x9)) (* (- 1) (* x20 x10 x17)) (* (- 1) (* x20 x18 x12)) (* (- 1) (* x11 x18 x18))) 0)) (>= (+ (* x19 x9) (* x20 x11) (* (- 1) (* x17 x19 x9)) (* (- 1) (* x10 x19 x19)) (* (- 1) (* x20 x12 x19)) (* (- 1) (* x20 x17 x11))) 0)) (>= (+ (* x20 x12) (* x10 x19) (* (- 1) (* x18 x19 x9)) (* (- 1) (* x20 x10 x19)) (* (- 1) (* x20 x20 x12)) (* (- 1) (* x20 x11 x18))) 0))) (and (and (and (>= (+ (* x22 x19 x9) (* x20 x11 x22) (* (- 1) (* x23 x10 x17)) (* (- 1) (* x23 x18 x12))) 0) (>= (+ (* x21 x18 x12) (* x10 x17 x21) (* x20 x22 x12) (* x10 x22 x19) (* (- 1) (* x10 x17 x24)) (* (- 1) (* x17 x22 x9)) (* (- 1) (* x11 x18 x22)) (* (- 1) (* x24 x18 x12))) 0)) (>= (+ (* x23 x17 x9) (* x23 x11 x18) (* x24 x19 x9) (* x20 x24 x11) (* (- 1) (* x21 x19 x9)) (* (- 1) (* x23 x10 x19)) (* (- 1) (* x20 x21 x11)) (* (- 1) (* x23 x20 x12))) 0)) (>= (+ (* (- 1) (* x22 x19 x9)) (* (- 1) (* x20 x11 x22)) (* x23 x10 x17) (* x23 x18 x12)) 0)))) (and (and (and (and (and (and (and (not (<= (+ (* x13 x3) (* x14 x4) (* x3 x1) (* x4 x2)) 0)) (>= (+ (* x13 x3) (* x14 x4) (* x3 x1) (* x4 x2)) 0)) (and (>= (+ (* (- 1) x1) (* x1 x9) (* x11 x2)) 0) (>= (+ (* (- 1) x2) (* x10 x1) (* x12 x2)) 0))) (and (>= (+ (* (- 1) x13) (* x13 x9) (* x14 x11)) 0) (>= (+ (* (- 1) x14) (* x13 x10) (* x14 x12)) 0))) (and (and (not (<= (+ (* x1 x15) (* x2 x16)) 0)) (>= (+ (* x1 x15) (* x2 x16)) 0)) (and (>= (+ (* (- 1) x1) (* x21 x1) (* x23 x2)) 0) (>= (+ (* (- 1) x2) (* x1 x22) (* x24 x2)) 0)))) (and (and (and (and (not (<= (+ (* x1 x15) (* x2 x16) (* (- 1) (* x13 x15)) (* (- 1) (* x14 x16))) 0)) (>= (+ (* x1 x15) (* x2 x16) (* (- 1) (* x13 x15)) (* (- 1) (* x14 x16))) 0)) (and (>= (+ (* (- 1) x1) (* x2 x19) (* x17 x1)) 0) (>= (+ (* (- 1) x2) (* x1 x18) (* x20 x2)) 0))) (and (>= (+ (* (- 1) (* x13 x17)) (* (- 1) (* x14 x19)) (* x21 x1) (* x23 x2)) 0) (>= (+ (* x1 x22) (* (- 1) (* x13 x18)) (* x24 x2) (* (- 1) (* x20 x14))) 0))) (and (>= (+ x13 (* (- 1) (* x13 x21)) (* (- 1) (* x23 x14))) 0) (>= (+ x14 (* (- 1) (* x13 x22)) (* (- 1) (* x24 x14))) 0)))) (and (and (and (not (<= (+ (* x13 x15) (* x14 x16) (* x3 x1) (* x4 x2) (* x13 x21 x25) (* x13 x22 x26) (* x13 x3 x17) (* x13 x4 x18) (* x20 x14 x4) (* x23 x14 x25) (* x24 x14 x26) (* x3 x14 x19)) 0)) (>= (+ (* x13 x15) (* x14 x16) (* x3 x1) (* x4 x2) (* x13 x21 x25) (* x13 x22 x26) (* x13 x3 x17) (* x13 x4 x18) (* x20 x14 x4) (* x23 x14 x25) (* x24 x14 x26) (* x3 x14 x19)) 0)) (and (>= (+ (* (- 1) x1) (* x1 x9) (* x11 x2)) 0) (>= (+ (* (- 1) x2) (* x10 x1) (* x12 x2)) 0))) (and (>= (+ (* (- 1) x13) (* x13 x17 x9) (* x13 x11 x18) (* x14 x19 x9) (* x20 x14 x11)) 0) (>= (+ (* (- 1) x14) (* x13 x18 x12) (* x13 x10 x17) (* x20 x14 x12) (* x10 x14 x19)) 0)))) (and (and (and (and (not (<= (+ (* x13 x15) (* x14 x16) (* (- 1) (* x13 x25)) (* (- 1) (* x14 x26)) (* x13 x21 x25) (* x13 x22 x26) (* x13 x3 x17) (* x13 x4 x18) (* x20 x14 x4) (* x23 x14 x25) (* x24 x14 x26) (* x3 x14 x19) (* (- 1) (* x10 x1 x16)) (* (- 1) (* x1 x15 x9)) (* (- 1) (* x11 x15 x2)) (* (- 1) (* x12 x2 x16))) 0)) (>= (+ (* x13 x15) (* x14 x16) (* (- 1) (* x13 x25)) (* (- 1) (* x14 x26)) (* x13 x21 x25) (* x13 x22 x26) (* x13 x3 x17) (* x13 x4 x18) (* x20 x14 x4) (* x23 x14 x25) (* x24 x14 x26) (* x3 x14 x19) (* (- 1) (* x10 x1 x16)) (* (- 1) (* x1 x15 x9)) (* (- 1) (* x11 x15 x2)) (* (- 1) (* x12 x2 x16))) 0)) (and (>= (+ (* x13 x17 x5) (* x13 x7 x18) (* x20 x7 x14) (* x14 x5 x19)) 0) (>= (+ (* x13 x18 x8) (* x6 x13 x17) (* x20 x14 x8) (* x6 x14 x19)) 0))) (and (>= (+ (* x1 x9) (* x11 x2) (* (- 1) (* x17 x1 x9)) (* (- 1) (* x10 x1 x19)) (* (- 1) (* x12 x2 x19)) (* (- 1) (* x17 x11 x2))) 0) (>= (+ (* x10 x1) (* x12 x2) (* (- 1) (* x1 x18 x9)) (* (- 1) (* x20 x10 x1)) (* (- 1) (* x20 x12 x2)) (* (- 1) (* x11 x18 x2))) 0))) (and (>= (+ (* x13 x17 x9) (* x13 x11 x18) (* x14 x19 x9) (* x20 x14 x11) (* (- 1) (* x21 x1 x9)) (* (- 1) (* x23 x10 x1)) (* (- 1) (* x21 x11 x2)) (* (- 1) (* x23 x12 x2))) 0) (>= (+ (* x13 x18 x12) (* x13 x10 x17) (* x20 x14 x12) (* x10 x14 x19) (* (- 1) (* x10 x24 x1)) (* (- 1) (* x1 x22 x9)) (* (- 1) (* x11 x22 x2)) (* (- 1) (* x24 x12 x2))) 0))))))
(exit)
(check-sat)
